
(set-logic BVNIA)
(synth-fun int_bvxor_2 ((s Int) (t Int)) Int
(
  (I Int) (Ic Int) (B Bool)
)
(
  (I Int  (
       Ic
       (+ I I )
       (* I I)
       (ite B I I)
    )
  )
  (Ic Int (
  s
  t
    (Constant Int)
  )
)
  (B Bool (
       (= I I)
       (>= I I)
       (not B)
     )
  )
)
)

(declare-var s Int)
(declare-var t Int)

(constraint (=> (and (<= 0 s 3) (<= 0 t 3)) (= (int_bvand_2 s t) (bv2nat (bvand ((_ int2bv 2) s) ((_ int2bv 2) t))) )))
(check-synth)
